problems/csplib-prob015/SchursLemma-models/noch/O2/lingeling/model_1_3-4-17-solution000001.eprime-solution
language ESSENCE' 1.0

letting boxes_PartitionAsSet_ExplicitR5_ExplicitVarSizeWithMarker_Marker be [2, 5, 5, 5; int(1..4)]
letting boxes_PartitionAsSet_ExplicitR5_ExplicitVarSizeWithMarker_Values be
        [[1, 2, 1, 1, 1, 1, 1, 1, 1, 1, 1, 1, 1, 1, 1, 1, 1; int(1..17)],
         [3, 4, 5, 6, 17, 1, 1, 1, 1, 1, 1, 1, 1, 1, 1, 1, 1; int(1..17)],
         [7, 9, 12, 14, 15, 1, 1, 1, 1, 1, 1, 1, 1, 1, 1, 1, 1; int(1..17)],
         [8, 10, 11, 13, 16, 1, 1, 1, 1, 1, 1, 1, 1, 1, 1, 1, 1; int(1..17)]; int(1..4)]
