problems/csplib-prob015/SchursLemma-models/noch/O2/lingeling/model_1_3-4-17-solution000001.solution
language Essence 1.3

letting boxes be partition({1, 2}, {3, 4, 5, 6, 17}, {7, 9, 12, 14, 15}, {8, 10, 11, 13, 16})
